# Solution for model count
# Objective value = 10
z#1 1
z#2 0
z#3 1
z#4 0
z#5 0
z#6 0
z#7 0
z#8 1
z#9 0
z#10 1
z#11 1
z#12 0
z#13 1
z#14 0
z#15 1
z#16 1
z#17 0
z#18 0
z#19 1
z#20 1
z#21 0
z#22 0
z#23 0
z#24 0
x#24 0
x#23 0
x#22 0
x#21 0
x#20 1185
x#19 75
x#18 0
x#17 0
x#16 1574
x#15 3044
x#14 0
x#13 455
x#12 0
x#11 454
x#10 61
x#9 0
x#8 80
x#7 0
x#6 0
x#5 0
x#4 0
x#3 2075
x#2 0
x#1 997
